c Sudoku solution
p cnf 729 0
179 0
236 0
254 0
324 0
339 0
378 0
387 0
442 0
486 0
491 0
549 0
269 0
568 0
585 0
592 0
625 0
657 0
661 0
721 0
734 0
748 0
158 0
819 0
429 0
882 0
272 0
915 0
135 0
531 0
966 0
984 0
194 0
396 0
295 0
146 0
556 0
616 0
632 0
826 0
776 0
875 0
971 0
345 0
688 0
699 0
789 0
959 0
922 0
228 0
418 0
514 0
851 0
241 0
167 0
112 0
181 0
283 0
123 0
311 0
217 0
713 0
797 0
527 0
433 0
455 0
464 0
643 0
477 0
674 0
573 0
947 0
863 0
844 0
898 0
993 0
837 0
938 0
353 0
362 0
752 0
765 0
